
Gurobi 6.0.4 (win64) logging started 06/14/15 16:31:12

Read LP format model from file E:\Eigene Dateien\Downloads\Michi shit\VRPTWMS-master\VRPTWMS\instances\mip\fuel\N6-C_DV100-C_SV25_F5_7_No_1.lp
Reading time = 0.00 seconds
(null): 253 rows, 134 columns, 987 nonzeros
Optimize a model with 253 rows, 134 columns and 987 nonzeros
Model has 252 quadratic constraints
WARNING: Only barrier available for SOCP models
Coefficient statistics:
  Matrix range    [1e+00, 1e+02]
  Objective range [6e+00, 1e+03]
  Bounds range    [1e+00, 1e+02]
  RHS range       [1e+00, 1e+02]
Presolve removed 29 rows and 16 columns
Presolve time: 0.01s
Presolved: 642 rows, 340 columns, 2975 nonzeros
Variable types: 196 continuous, 144 integer (111 binary)
Found heuristic solution: objective 6203.3600000
Optimize a model with 642 rows, 340 columns and 2975 nonzeros
Coefficient statistics:
  Matrix range    [1e+00, 1e+02]
  Objective range [6e+00, 1e+03]
  Bounds range    [1e+00, 1e+02]
  RHS range       [1e+00, 1e+02]
Presolve removed 65 rows and 46 columns
Presolved: 577 rows, 297 columns, 2728 nonzeros


Root relaxation: objective 8.611320e+02, 55 iterations, 0.00 seconds

    Nodes    |    Current Node    |     Objective Bounds      |     Work
 Expl Unexpl |  Obj  Depth IntInf | Incumbent    BestBd   Gap | It/Node Time

     0     0  861.13196    0   21 6203.36000  861.13196  86.1%     -    0s
     0     0 1141.55359    0   24 6203.36000 1141.55359  81.6%     -    0s
H    0     0                    5165.6100000 1141.55359  77.9%     -    0s
     0     0 1152.28548    0   22 5165.61000 1152.28548  77.7%     -    0s
H    0     0                    4165.5400000 1152.28548  72.3%     -    0s
     0     0 1156.59500    0   16 4165.54000 1156.59500  72.2%     -    0s
H    0     0                    3146.8200000 1156.59500  63.2%     -    0s
     0     0 1156.59500    0   15 3146.82000 1156.59500  63.2%     -    0s
     0     0 1156.59500    0   15 3146.82000 1156.59500  63.2%     -    0s
     0     0 1156.59500    0   15 3146.82000 1156.59500  63.2%     -    0s
     0     2 1156.59500    0   15 3146.82000 1156.59500  63.2%     -    0s

Cutting planes:
  Learned: 3
  Gomory: 2
  Cover: 100
  Implied bound: 96
  Clique: 4
  MIR: 38
  GUB cover: 2
  Zero half: 2

Explored 3290 nodes (48372 simplex iterations) in 0.53 seconds
Thread count was 4 (of 4 available processors)

Optimal solution found (tolerance 1.00e-04)
Best objective 3.146820000000e+03, best bound 3.146820000000e+03, gap 0.0%
k_c1	3.0
k_c2	100.0
k_c3	5.0
k_c4	100.0
k_c5	3.0
k_c6	97.0
k_dN	-0.0
o_1	0.0
o_2	0.0
o_3	0.0
o_4	0.0
o_5	0.0
o_6	0.0
p_1	0.0
p_2	0.0
p_3	0.0
p_4	0.0
p_5	0.0
p_6	0.0
phi_c1	2.0
phi_c2	4.0
phi_c3	4.0
phi_c4	3.0
phi_c5	2.0
phi_c6	2.0
phi_dN	0.0
pi_c1	0.0
pi_c2	0.0
pi_c3	0.0
pi_c4	0.0
pi_c5	0.0
pi_c6	0.0
pi_dN	-0.0
tauD_c1	40.0
tauD_c2	45.0
tauD_c3	30.0
tauD_c4	20.0
tauD_c5	77.0
tauD_c6	65.0
tauD_d0	-0.0
tauD_dN	100.0
tauS_c1	0.0
tauS_c2	0.0
tauS_c3	0.0
tauS_c4	0.0
tauS_c5	0.0
tauS_c6	0.0
tauS_d0	-0.0
tauS_dN	0.0
x_c1_dN	1.0
x_c2_c6	1.0
x_c3_c1	1.0
x_c4_c5	1.0
x_c5_dN	1.0
x_c6_dN	1.0
x_d0_c2	1.0
x_d0_c3	1.0
x_d0_c4	1.0
